
  32    4
  10   10   10   10

   0   0   0   0   0   2 2 6 
   6   0   1   1   1   2 4 3 
   1   1   4   0   9   1 5 
   5   4   0   8   4   2 10 8 
   8   4   0   5   4   1 7 
   3   2   4   4   0   1 7 
   7   8   6   6   0   1 8 
   5   4   2   0   5   1 9 
   8   3   8   0   3   2 13 11 
   2   0   1   3   5   2 13 12 
   1   0   4   8   4   1 12 
   9   0   3   2   5   3 18 17 14 
   4   2   0   2   4   3 18 17 15 
  10   0   5   5   6   1 15 
   9   6   6   0   4   1 16 
   2   3   4   2   0   2 20 19 
   2   4   3   0   5   2 20 19 
  10   0   7   3   6   2 20 19 
   5   2   6   0   5   3 28 22 21 
   8   2   1   0   6   3 28 25 22 
   3   8   4   0   4   2 25 23 
  10   4   3   0   5   1 24 
   4   3   3   0   1   1 24 
   7   3   3   0   1   2 30 26 
   2   0   3   3   2   2 31 26 
  10   5   0   6   3   1 27 
  10   0   7   3   3   1 29 
   3   7   0   5   2   1 29 
  10   5   7   0   3   1 32
   6   4   3   0   6   1 32
   4   0   2   2   2   1 32
   0   0   0   0   0   0 
